%nproc=1
%mem=1gb
%chk=zn.chk
#p rhf/gen nosymm int=nobasistrans pop=full iop(3/33=1)

ti

0 1
Zn 0.0 0.0 0.0
F  0.0 0.0 1.0
F 0.0 0.0 -1.0

F 0
S   12   1.00
      7.453000D+04           9.500000D-05
      1.117000D+04           7.380000D-04
      2.543000D+03           3.858000D-03
      7.210000D+02           1.592600D-02
      2.359000D+02           5.428900D-02
      8.560000D+01           1.495130D-01
      3.355000D+01           3.082520D-01
      1.393000D+01           3.948530D-01
      5.915000D+00           2.110310D-01
      1.843000D+00           1.715100D-02
      7.124000D-01          -2.015000D-03
      2.637000D-01           8.690000D-04
P   6   1.00
      8.039000D+01           6.347000D-03
      1.863000D+01           4.420400D-02
      5.694000D+00           1.685140D-01
      1.953000D+00           3.615630D-01
      6.702000D-01           4.421780D-01
      2.166000D-01           2.434350D-01
****
Zn     0
S   22   1.00
      1.785293D+07           2.106603D-06
      2.673038D+06           1.638051D-05
      6.083244D+05           8.617178D-05
      1.723176D+05           3.640028D-04
      5.622269D+04           1.325778D-03
      2.029985D+04           4.315394D-03
      7.918871D+03           1.278917D-02
      3.285340D+03           3.459541D-02
      1.433524D+03           8.423468D-02
      6.522889D+02           1.769497D-01
      3.074360D+02           2.947718D-01
      1.491466D+02           3.286054D-01
      7.345108D+01           1.837326D-01
      3.392562D+01           2.845640D-02
      1.718947D+01          -1.562471D-03
      8.666595D+00           1.057694D-03
      3.972505D+00          -4.832147D-04
      1.894665D+00           1.795943D-04
      8.593850D-01          -7.198366D-05
      1.952560D-01           2.200105D-05
      8.585400D-02          -1.565510D-05
      3.678100D-02           4.980717D-06
P   18   1.00
      5.286793D+04           1.100000D-05
      1.251179D+04           9.400000D-05
      4.065286D+03           5.510000D-04
      1.557595D+03           2.511000D-03
      6.632892D+02           9.470000D-03
      3.041561D+02           3.016900D-02
      1.473680D+02           8.085500D-02
      7.445469D+01           1.751390D-01
      3.871493D+01           2.897160D-01
      2.057022D+01           3.298490D-01
      1.105425D+01           2.092940D-01
      5.874661D+00           5.625900D-02
      3.052936D+00           5.052000D-03
      1.547225D+00           9.970000D-04
      7.541510D-01           1.870000D-04
      2.653490D-01           5.100000D-05
      1.020670D-01          -1.300000D-05
      3.875500D-02           4.000000D-06
D   11   1.00
      6.397806D+02           2.080000D-04
      1.926742D+02           1.954000D-03
      7.484368D+01           1.071100D-02
      3.286048D+01           3.905700D-02
      1.539353D+01           1.048480D-01
      7.525512D+00           2.045690D-01
      3.715429D+00           2.852080D-01
      1.806459D+00           3.014460D-01
      8.529730D-01           2.462280D-01
      3.847800D-01           1.390160D-01
      1.593370D-01           3.626900D-02
F   1   1.00
      8.696000D+00           1.000000D+00
G   1   1.00
      6.893300D+00           1.000000D+00
H   1   1.00
      4.413600D+00           1.0000000
****


